1695.37,33.4,40.03
1607.96,35.22,42.21
1597.07,35.46,42.5
1691.92,33.47,40.11
1731.96,32.7,39.19
1595.71,35.49,42.53
1704.55,33.22,39.82
1775.04,31.9,38.24
1782.0,31.78,38.09
1691.15,33.49,40.13
1428.96,39.63,47.49
1684.02,33.63,40.3
1660.66,34.1,40.87
1629.74,34.75,41.64
1737.11,32.6,39.07
1588.28,35.65,42.73
1634.98,34.64,41.51
1694.03,33.43,40.06
1552.05,36.49,43.73
1464.76,38.66,46.33
